CMD:
./solvers/bin/cadical --plain --no-reduce -t 1600 ./data/cnfs//pj2002/pj2002.94.cnf

c --- [ banner ] -------------------------------------------------------------
c 
c CaDiCaL SAT Solver
c Copyright (c) 2016-2024
c A. Biere, M. Fleury, N. Froleyks, K. Fazekas, F. Pollitt, T. Faller
c JKU Linz, University of Freiburg, TU Wien
c 
c Version 2.1.3 5296d3d2a9bf48c154ab2acb5e44625776d821bf
c g++ (Gentoo 12.3.1_p20230526 p2) 12.3.1 20230526 -Wall -Wextra -O3 -DNDEBUG
c Sat Aug 9 07:26:21 PDT 2025 Linux cedar2.int.cedar.computecanada.ca 5.14.0-362.24.2.el9_3.x86_64 x86_64
c 
c --- [ limit ] --------------------------------------------------------------
c 
c setting time limit to 1600 seconds real time (due to '-t 1600')
c 
c --- [ parsing input ] ------------------------------------------------------
c 
c reading DIMACS file from './data/cnfs//pj2002/pj2002.94.cnf'
c opening file to read './data/cnfs//pj2002/pj2002.94.cnf'
c found 'p cnf 3375674 9786365' header
c parsed 9786365 clauses in 1.53 seconds process time
c 
c --- [ options ] ------------------------------------------------------------
c 
c   --compact=false                (different from default 'true')
c   --decompose=false              (different from default 'true')
c   --deduplicate=false            (different from default 'true')
c   --elim=false                   (different from default 'true')
c   --probe=false                  (different from default 'true')
c   --reduce=false                 (different from default 'true')
c   --subsume=false                (different from default 'true')
c   --ternary=false                (different from default 'true')
c   --transred=false               (different from default 'true')
c   --vivify=false                 (different from default 'true')
c 
c --- [ solving ] ------------------------------------------------------------
c 
c time measured in process time since initialization
c 
c  seconds    reductions  redundant   irredundant
c          MB     restarts       trail         variables
c            level   conflicts       glue            remaining
c 
c *  1.53 1505  0 0   0    0    0  0% 0 9722642 3225024 96%
c {  1.56 1505  0 0   0    0    0  0% 0 9722642 3225024 96%
c i  1.58 1505 1457 0   0    6    5  6% 4 9722642 3225023 96%
c i  1.83 1508 3657 0   4  251  227 11% 2 9722642 3224693 96%
c i  1.83 1508 3247 0   7  282  254 10% 2 9722642 3224326 96%
c i  1.83 1508 3156 0   7  290  258 10% 2 9722642 3223666 95%
c i  1.83 1508 2490 0  11  368  322  9% 2 9722642 3222639 95%
c i  1.83 1508 2456 0  11  373  326  9% 2 9722642 3221626 95%
c i  1.83 1508 2449 0  11  374  326  9% 2 9722642 3221598 95%
c }  1.83 1508 2443 0  11  376  326  9% 2 9722642 3221500 95%
c 0  1.83 1508 2443 0  11  376  326  9% 2 9722642 3221500 95%
c 
c --- [ result ] -------------------------------------------------------------
c 
s UNSATISFIABLE
c 
c --- [ run-time profiling ] -------------------------------------------------
c 
c process time taken by individual solving procedures
c (percentage relative to process time for solving)
c 
c         1.53  504.85% parse
c         0.30   99.97% search
c         0.28   91.27% unstable
c         0.03    8.70% lucky
c         0.00    0.00% simplify
c   =================================
c         0.30   16.53% solve
c 
c last line shows process time for solving
c (percentage relative to total process time)
c 
c --- [ statistics ] ---------------------------------------------------------
c 
c chronological:               190        50.53 %  of conflicts
c conflicts:                   376      1240.51    per second
c decisions:                 15627     51556.90    per second
c fixed:                    154123         4.57 %  of all variables
c learned:                     365        97.07 %  per conflict
c learned_lits:               2667       100.00 %  learned literals
c minimized:                     0         0.00 %  learned literals
c shrunken:                    589        22.08 %  learned literals
c minishrunken:                296        11.10 %  learned literals
c otfs:                          6         1.60 %  of conflict
c propagations:            3007744         9.92 M  per second
c restarts:                     11        34.18    interval
c subsumed:                     31         0.00 %  of all clauses
c strengthened:                  6         0.00 %  of all clauses
c 
c seconds are measured in process time for solving
c 
c --- [ resources ] ----------------------------------------------------------
c 
c total process time since initialization:         1.83    seconds
c total real time since initialization:            1.85    seconds
c maximum resident set size of process:         1506.18    MB
c 
c --- [ shutting down ] ------------------------------------------------------
c 
c exit 20
